
  12    4
  10   10   10   10

   0   0   0   0   0   4 2 3 4 5 
   7  10  10  10  10   3 11 8 7 
   9  10  10  10  10   2 8 6 
  10  10  10  10  10   3 11 10 7 
   1  10  10  10  10   2 11 6 
   6  10  10  10  10   1 7 
   7  10  10  10  10   1 9 
   1  10  10  10  10   1 10 
   2  10  10  10  10   1 12
   4  10  10  10  10   1 12
   5  10  10  10  10   1 12
   0   0   0   0   0   0 
